000 000 001 002 002 002 003 004 002 001 001 001 002 002 003 003 010 009 007 005 007 008 022 021 017 020 016 013 010 007 010
000 000 002 001 002 002 003 002 000 001 001 001 001 001 004 002 006 006 006 005 007 009 017 015 021 016 023 014 014 008 010
000 000 001 001 002 004 003 001 001 001 001 001 002 002 003 002 003 005 006 008 005 011 021 021 023 019 025 016 015 012 008
000 000 000 000 001 002 002 001 001 001 001 001 002 001 001 002 003 004 004 006 006 011 012 026 014 017 023 018 019 013 008
000 000 000 000 000 001 001 001 001 001 001 002 002 002 001 002 003 006 003 007 005 013 012 017 019 021 017 016 013 017 010
000 000 000 000 001 002 001 001 001 001 001 003 003 002 001 002 003 008 006 005 008 019 018 009 009 016 016 017 014 016 014
000 000 000 000 001 001 001 001 001 001 001 002 005 002 005 005 003 003 005 004 011 009 016 007 013 013 010 017 017 012 020
000 000 000 001 001 001 002 001 001 001 001 001 003 003 006 008 004 002 003 004 012 021 017 009 014 010 007 010 015 009 026
000 001 000 001 001 001 002 001 002 002 003 002 003 003 004 005 003 001 001 006 018 054 024 016 014 010 009 009 006 009 020
000 001 001 002 001 001 001 001 002 004 005 003 003 002 002 002 001 001 002 005 009 037 034 056 017 015 012 010 006 004 010
000 001 002 003 001 001 001 001 002 003 006 005 004 004 003 001 001 001 002 003 005 024 039 041 037 018 012 010 006 005 011
001 001 002 002 001 001 001 001 003 003 006 007 007 002 002 002 001 002 004 003 004 023 036 033 032 020 017 010 005 007 010
001 002 002 001 001 001 001 001 003 003 009 011 007 005 003 002 002 004 005 003 004 008 025 025 022 016 010 011 009 008 009
003 002 002 001 001 001 002 002 003 006 017 017 009 005 004 005 003 008 014 012 009 015 025 024 036 022 007 013 011 010 009
003 003 001 000 001 001 001 002 006 022 021 012 013 012 007 012 007 006 015 010 013 018 028 026 057 023 009 013 008 008 009
002 001 001 000 001 001 001 004 013 020 018 010 009 015 009 014 012 011 015 018 028 064 044 051 064 038 019 016 011 021 016
001 001 002 000 000 001 002 011 021 017 014 019 024 020 017 013 014 015 016 011 025 030 046 081 056 054 058 030 013 011 025
001 002 001 002 002 003 003 050 040 021 029 026 057 018 022 016 019 018 021 008 010 026 046 042 056 037 085 039 011 010 030
001 001 001 003 003 003 013 061 042 039 039 052 078 015 017 012 012 016 021 009 007 015 032 058 089 072 089 077 038 015 055
001 001 002 002 005 004 013 065 048 072 051 044 033 017 015 008 005 009 012 008 013 011 021 054 050 069 075 105 061 013 054
002 002 003 003 005 005 012 041 054 073 048 035 026 015 014 010 004 004 005 004 005 009 034 075 100 085 058 046 092 044 058
001 001 002 003 004 005 013 028 051 057 035 019 018 010 008 011 003 003 007 006 005 009 022 068 075 098 062 050 091 064 068
000 001 001 001 002 006 017 028 039 039 021 008 012 006 004 007 003 002 006 006 005 005 010 056 046 082 092 057 091 123 109
001 001 001 001 002 008 012 023 026 030 012 004 005 003 002 001 002 002 004 005 005 005 010 035 037 048 146 064 098 146 143
001 001 002 002 003 005 006 015 017 013 005 002 002 001 001 001 001 001 003 005 005 006 023 024 040 048 165 066 105 128 134
002 002 005 003 002 006 008 007 015 008 007 003 002 001 001 001 001 001 002 004 004 007 039 025 044 058 152 158 114 187 123
004 003 004 002 003 006 005 005 009 005 004 003 002 002 000 000 001 001 002 006 007 008 026 075 044 092 123 078 100 143 109
004 003 003 001 002 005 003 004 005 004 004 003 003 002 001 000 002 003 008 018 016 013 033 123 129 085 111 123 087 066 087
000 001 001 001 002 005 005 005 004 003 002 002 003 002 002 000 002 012 023 031 040 021 054 096 072 078 082 082 075 048 065
000 000 001 000 002 005 006 005 003 002 002 002 003 004 002 001 004 023 045 046 048 033 033 061 069 042 085 077 058 054 060
000 001 000 000 001 007 004 003 001 001 001 002 003 003 003 003 006 043 061 075 064 054 037 053 045 035 066 082 052 052 061
000 000 000 000 000 002 002 001 000 001 001 002 001 003 004 004 014 077 052 061 062 060 047 039 025 031 051 025 034 072 035
001 000 000 000 000 000 000 000 000 001 001 001 001 001 002 003 007 072 056 034 033 061 047 028 021 021 025 013 024 037 017
002 001 001 000 000 000 000 000 000 000 000 000 000 001 002 003 004 010 016 017 020 041 036 023 022 010 021 013 011 021 014
003 002 001 000 000 000 000 000 000 000 000 000 000 000 001 002 002 003 006 009 024 035 032 030 025 011 017 013 008 015 011
003 008 002 001 001 001 000 000 000 000 000 000 000 000 001 001 002 002 001 003 015 034 029 016 010 004 009 007 004 006 004
003 009 006 002 001 000 000 000 000 000 000 000 000 000 000 000 002 001 001 001 004 023 020 014 004 003 003 006 002 002 003
002 005 006 002 000 000 000 000 000 000 001 000 001 002 002 001 001 001 000 002 002 006 008 001 001 001 001 003 002 002 002
000 001 002 002 000 000 000 000 000 001 000 001 002 003 004 001 000 001 001 001 001 003 002 000 000 000 000 000 001 002 001
000 000 000 003 001 000 000 000 000 001 000 002 003 004 002 002 001 001 000 000 001 001 000 000 000 000 000 000 000 001 001
000 000 000 000 000 000 000 000 000 001 001 002 002 002 001 001 002 001 001 001 001 000 001 000 000 000 000 000 000 000 000
000 000 000 001 000 000 000 000 000 000 001 001 001 003 001 001 001 002 003 002 001 001 002 001 000 000 000 000 000 000 000
001 000 000 001 000 000 000 000 000 000 001 001 000 001 000 001 003 003 013 008 006 003 002 001 000 000 000 000 000 000 000
001 000 001 001 000 000 000 000 001 001 001 000 000 000 001 003 009 015 038 028 008 005 003 002 000 000 000 000 000 000 000
001 001 002 001 001 000 000 000 000 001 000 000 000 001 002 014 034 028 047 046 013 007 002 002 000 000 000 000 -99 -99 -99
000 002 001 001 000 000 000 000 000 000 000 000 000 002 005 010 021 024 031 025 018 008 005 003 001 000 000 000 -99 -99 -99
000 000 000 000 000 001 000 000 000 000 000 000 001 001 003 006 005 011 017 024 026 010 006 003 002 000 000 000 -99 -99 -99
001 001 001 001 000 001 000 000 000 000 000 000 001 001 001 002 002 007 022 024 021 007 005 003 001 000 000 000 000 -99 -99
004 002 002 003 001 000 001 000 000 000 000 000 001 000 001 003 004 017 038 022 007 006 010 006 002 000 000 000 000 000 -99
005 009 003 004 001 001 001 001 000 000 000 001 001 001 002 004 010 020 031 021 009 017 025 020 012 003 000 000 000 001 000
006 005 003 002 001 001 001 000 000 000 000 000 001 002 005 007 014 015 017 021 012 039 019 017 019 009 003 003 001 001 000
006 003 002 001 001 001 000 000 001 001 000 000 001 003 005 010 014 010 012 008 006 007 011 017 018 010 005 007 005 001 000
002 001 001 000 000 000 000 000 001 002 001 001 001 004 009 009 008 005 004 003 003 002 005 006 012 006 004 008 005 001 000
001 000 000 000 000 000 000 000 001 001 001 002 001 001 005 007 004 003 003 002 002 002 001 002 004 001 002 008 001 001 001
000 000 000 000 000 000 000 000 001 001 001 002 002 001 002 003 003 002 002 001 001 001 001 001 000 000 000 000 000 001 002
